InboundTrucks  = 8;
OutboundTrucks = 5;
InboundDoors   = 4;
OutboundDoors  = 4;
ReleaseTime    = [81,14,3,94,35,31,28,17];
UnloadTime     = [43,23,41,43,37,22,38,33];
LoadTime       = [5,5,6,8,8];
TransferTime   = [| 0,0,11,0,22 | 44,36,0,38,0 | 0,10,0,0,31 | 0,0,23,31,0 | 15,34,0,0,32 | 48,26,12,0,44 | 0,0,0,45,28 | 50,0,33,0,0 |];
